(set-info :smt-lib-version 2.6)
(set-logic QF_BV)
(set-info :source |
            Generated by: Samuel Coward
            Generated on: 2025-08-12
            Generator: CIRCT
            Application: Datapath synthesis of digital circuits 
            Target solver: Bitwuzla
            Time limit: 300.0
            Benchmarks generated by the CIRCT tool to check correctness of lowering
            from word-level bitvector circuit to a gate-level netlist.
            Using compressor tree circuits proves challenging for SMT.|)
(set-info :license "https://creativecommons.org/licenses/by/4.0/")
(set-info :category "industrial")
(set-info :status unsat)

; solver scope 0
(declare-const tmp (_ BitVec 4))
(declare-const tmp_0 (_ BitVec 4))
(declare-const tmp_1 (_ BitVec 4))
(assert (let ((tmp_2 ((_ extract 0 0) tmp)))
        (let ((tmp_3 ((_ extract 0 0) tmp_1)))
        (let ((tmp_4 (bvand tmp_3 tmp_2)))
        (let ((tmp_5 ((_ extract 0 0) tmp_0)))
        (let ((tmp_6 (bvand tmp_5 tmp_2)))
        (let ((tmp_7 (bvand tmp_6 tmp_4)))
        (let ((tmp_8 (bvxor tmp_7 #b1)))
        (let ((tmp_9 (bvxor tmp_4 #b1)))
        (let ((tmp_10 (bvxor tmp_6 #b1)))
        (let ((tmp_11 (bvand tmp_10 tmp_9)))
        (let ((tmp_12 (bvxor tmp_11 #b1)))
        (let ((tmp_13 (bvand tmp_12 tmp_8)))
        (let ((tmp_14 ((_ extract 1 1) tmp_1)))
        (let ((tmp_15 (bvand tmp_14 tmp_2)))
        (let ((tmp_16 (bvxor tmp_2 #b1)))
        (let ((tmp_17 ((_ extract 1 1) tmp)))
        (let ((tmp_18 (bvxor tmp_17 #b1)))
        (let ((tmp_19 (bvand tmp_18 tmp_16)))
        (let ((tmp_20 (bvxor tmp_19 #b1)))
        (let ((tmp_21 (bvand tmp_17 tmp_2)))
        (let ((tmp_22 (bvxor tmp_21 #b1)))
        (let ((tmp_23 (bvand tmp_22 tmp_20)))
        (let ((tmp_24 (bvand tmp_3 tmp_23)))
        (let ((tmp_25 (bvand tmp_24 tmp_15)))
        (let ((tmp_26 (bvxor tmp_25 #b1)))
        (let ((tmp_27 (bvxor tmp_15 #b1)))
        (let ((tmp_28 (bvxor tmp_24 #b1)))
        (let ((tmp_29 (bvand tmp_28 tmp_27)))
        (let ((tmp_30 (bvxor tmp_29 #b1)))
        (let ((tmp_31 (bvand tmp_30 tmp_26)))
        (let ((tmp_32 ((_ extract 1 1) tmp_0)))
        (let ((tmp_33 (bvand tmp_32 tmp_2)))
        (let ((tmp_34 (bvand tmp_5 tmp_17)))
        (let ((tmp_35 (bvand tmp_34 tmp_33)))
        (let ((tmp_36 (bvxor tmp_35 #b1)))
        (let ((tmp_37 (bvxor tmp_33 #b1)))
        (let ((tmp_38 (bvxor tmp_34 #b1)))
        (let ((tmp_39 (bvand tmp_38 tmp_37)))
        (let ((tmp_40 (bvxor tmp_39 #b1)))
        (let ((tmp_41 (bvand tmp_40 tmp_36)))
        (let ((tmp_42 (bvand tmp_41 tmp_31)))
        (let ((tmp_43 (bvxor tmp_42 #b1)))
        (let ((tmp_44 (bvxor tmp_31 #b1)))
        (let ((tmp_45 (bvxor tmp_41 #b1)))
        (let ((tmp_46 (bvand tmp_45 tmp_44)))
        (let ((tmp_47 (bvxor tmp_46 #b1)))
        (let ((tmp_48 (bvand tmp_47 tmp_43)))
        (let ((tmp_49 (bvand tmp_48 tmp_7)))
        (let ((tmp_50 (bvxor tmp_49 #b1)))
        (let ((tmp_51 (bvxor tmp_48 #b1)))
        (let ((tmp_52 (bvand tmp_51 tmp_8)))
        (let ((tmp_53 (bvxor tmp_52 #b1)))
        (let ((tmp_54 (bvand tmp_53 tmp_50)))
        (let ((tmp_55 ((_ extract 2 2) tmp_1)))
        (let ((tmp_56 (bvand tmp_55 tmp_2)))
        (let ((tmp_57 (bvand tmp_25 tmp_56)))
        (let ((tmp_58 (bvxor tmp_57 #b1)))
        (let ((tmp_59 (bvxor tmp_56 #b1)))
        (let ((tmp_60 (bvand tmp_26 tmp_59)))
        (let ((tmp_61 (bvxor tmp_60 #b1)))
        (let ((tmp_62 (bvand tmp_61 tmp_58)))
        (let ((tmp_63 (bvand tmp_14 tmp_23)))
        (let ((tmp_64 ((_ extract 2 2) tmp)))
        (let ((tmp_65 (bvxor tmp_64 #b1)))
        (let ((tmp_66 (bvand tmp_65 tmp_19)))
        (let ((tmp_67 (bvxor tmp_66 #b1)))
        (let ((tmp_68 (bvand tmp_64 tmp_20)))
        (let ((tmp_69 (bvxor tmp_68 #b1)))
        (let ((tmp_70 (bvand tmp_69 tmp_67)))
        (let ((tmp_71 (bvand tmp_3 tmp_70)))
        (let ((tmp_72 (bvand tmp_71 tmp_63)))
        (let ((tmp_73 (bvxor tmp_72 #b1)))
        (let ((tmp_74 (bvxor tmp_63 #b1)))
        (let ((tmp_75 (bvxor tmp_71 #b1)))
        (let ((tmp_76 (bvand tmp_75 tmp_74)))
        (let ((tmp_77 (bvxor tmp_76 #b1)))
        (let ((tmp_78 (bvand tmp_77 tmp_73)))
        (let ((tmp_79 ((_ extract 2 2) tmp_0)))
        (let ((tmp_80 (bvand tmp_79 tmp_2)))
        (let ((tmp_81 (bvand tmp_32 tmp_17)))
        (let ((tmp_82 (bvand tmp_5 tmp_64)))
        (let ((tmp_83 (bvand tmp_82 tmp_81)))
        (let ((tmp_84 (bvxor tmp_83 #b1)))
        (let ((tmp_85 (bvxor tmp_81 #b1)))
        (let ((tmp_86 (bvxor tmp_82 #b1)))
        (let ((tmp_87 (bvand tmp_86 tmp_85)))
        (let ((tmp_88 (bvxor tmp_87 #b1)))
        (let ((tmp_89 (bvand tmp_88 tmp_84)))
        (let ((tmp_90 (bvand tmp_89 tmp_80)))
        (let ((tmp_91 (bvxor tmp_90 #b1)))
        (let ((tmp_92 (bvxor tmp_80 #b1)))
        (let ((tmp_93 (bvxor tmp_89 #b1)))
        (let ((tmp_94 (bvand tmp_93 tmp_92)))
        (let ((tmp_95 (bvxor tmp_94 #b1)))
        (let ((tmp_96 (bvand tmp_95 tmp_91)))
        (let ((tmp_97 (bvand tmp_96 tmp_35)))
        (let ((tmp_98 (bvxor tmp_97 #b1)))
        (let ((tmp_99 (bvxor tmp_96 #b1)))
        (let ((tmp_100 (bvand tmp_99 tmp_36)))
        (let ((tmp_101 (bvxor tmp_100 #b1)))
        (let ((tmp_102 (bvand tmp_101 tmp_98)))
        (let ((tmp_103 (bvand tmp_102 tmp_78)))
        (let ((tmp_104 (bvxor tmp_103 #b1)))
        (let ((tmp_105 (bvxor tmp_78 #b1)))
        (let ((tmp_106 (bvxor tmp_102 #b1)))
        (let ((tmp_107 (bvand tmp_106 tmp_105)))
        (let ((tmp_108 (bvxor tmp_107 #b1)))
        (let ((tmp_109 (bvand tmp_108 tmp_104)))
        (let ((tmp_110 (bvand tmp_109 tmp_42)))
        (let ((tmp_111 (bvxor tmp_110 #b1)))
        (let ((tmp_112 (bvxor tmp_109 #b1)))
        (let ((tmp_113 (bvand tmp_112 tmp_43)))
        (let ((tmp_114 (bvxor tmp_113 #b1)))
        (let ((tmp_115 (bvand tmp_114 tmp_111)))
        (let ((tmp_116 (bvand tmp_115 tmp_62)))
        (let ((tmp_117 (bvxor tmp_116 #b1)))
        (let ((tmp_118 (bvxor tmp_62 #b1)))
        (let ((tmp_119 (bvxor tmp_115 #b1)))
        (let ((tmp_120 (bvand tmp_119 tmp_118)))
        (let ((tmp_121 (bvxor tmp_120 #b1)))
        (let ((tmp_122 (bvand tmp_121 tmp_117)))
        (let ((tmp_123 (bvand tmp_122 tmp_49)))
        (let ((tmp_124 (bvxor tmp_123 #b1)))
        (let ((tmp_125 (bvxor tmp_122 #b1)))
        (let ((tmp_126 (bvand tmp_125 tmp_50)))
        (let ((tmp_127 (bvxor tmp_126 #b1)))
        (let ((tmp_128 (bvand tmp_127 tmp_124)))
        (let ((tmp_129 (bvand tmp_111 tmp_117)))
        (let ((tmp_130 (bvxor tmp_129 #b1)))
        (let ((tmp_131 ((_ extract 3 3) tmp_1)))
        (let ((tmp_132 (bvand tmp_131 tmp_2)))
        (let ((tmp_133 (bvand tmp_55 tmp_23)))
        (let ((tmp_134 (bvand tmp_133 tmp_132)))
        (let ((tmp_135 (bvxor tmp_134 #b1)))
        (let ((tmp_136 (bvxor tmp_132 #b1)))
        (let ((tmp_137 (bvxor tmp_133 #b1)))
        (let ((tmp_138 (bvand tmp_137 tmp_136)))
        (let ((tmp_139 (bvxor tmp_138 #b1)))
        (let ((tmp_140 (bvand tmp_139 tmp_135)))
        (let ((tmp_141 (bvand tmp_72 tmp_140)))
        (let ((tmp_142 (bvxor tmp_141 #b1)))
        (let ((tmp_143 (bvxor tmp_140 #b1)))
        (let ((tmp_144 (bvand tmp_73 tmp_143)))
        (let ((tmp_145 (bvxor tmp_144 #b1)))
        (let ((tmp_146 (bvand tmp_145 tmp_142)))
        (let ((tmp_147 (bvand tmp_98 tmp_104)))
        (let ((tmp_148 (bvxor tmp_147 #b1)))
        (let ((tmp_149 (bvand tmp_14 tmp_70)))
        (let ((tmp_150 ((_ extract 3 3) tmp)))
        (let ((tmp_151 (bvxor tmp_150 #b1)))
        (let ((tmp_152 (bvand tmp_151 tmp_66)))
        (let ((tmp_153 (bvxor tmp_152 #b1)))
        (let ((tmp_154 (bvand tmp_150 tmp_67)))
        (let ((tmp_155 (bvxor tmp_154 #b1)))
        (let ((tmp_156 (bvand tmp_155 tmp_153)))
        (let ((tmp_157 (bvand tmp_3 tmp_156)))
        (let ((tmp_158 ((_ extract 3 3) tmp_0)))
        (let ((tmp_159 (bvand tmp_158 tmp_2)))
        (let ((tmp_160 (bvand tmp_159 tmp_157)))
        (let ((tmp_161 (bvxor tmp_160 #b1)))
        (let ((tmp_162 (bvxor tmp_157 #b1)))
        (let ((tmp_163 (bvxor tmp_159 #b1)))
        (let ((tmp_164 (bvand tmp_163 tmp_162)))
        (let ((tmp_165 (bvxor tmp_164 #b1)))
        (let ((tmp_166 (bvand tmp_165 tmp_161)))
        (let ((tmp_167 (bvand tmp_166 tmp_149)))
        (let ((tmp_168 (bvxor tmp_167 #b1)))
        (let ((tmp_169 (bvxor tmp_149 #b1)))
        (let ((tmp_170 (bvxor tmp_166 #b1)))
        (let ((tmp_171 (bvand tmp_170 tmp_169)))
        (let ((tmp_172 (bvxor tmp_171 #b1)))
        (let ((tmp_173 (bvand tmp_172 tmp_168)))
        (let ((tmp_174 (bvand tmp_84 tmp_91)))
        (let ((tmp_175 (bvxor tmp_174 #b1)))
        (let ((tmp_176 (bvand tmp_79 tmp_17)))
        (let ((tmp_177 (bvand tmp_32 tmp_64)))
        (let ((tmp_178 (bvand tmp_5 tmp_150)))
        (let ((tmp_179 (bvand tmp_178 tmp_177)))
        (let ((tmp_180 (bvxor tmp_179 #b1)))
        (let ((tmp_181 (bvxor tmp_177 #b1)))
        (let ((tmp_182 (bvxor tmp_178 #b1)))
        (let ((tmp_183 (bvand tmp_182 tmp_181)))
        (let ((tmp_184 (bvxor tmp_183 #b1)))
        (let ((tmp_185 (bvand tmp_184 tmp_180)))
        (let ((tmp_186 (bvand tmp_185 tmp_176)))
        (let ((tmp_187 (bvxor tmp_186 #b1)))
        (let ((tmp_188 (bvxor tmp_176 #b1)))
        (let ((tmp_189 (bvxor tmp_185 #b1)))
        (let ((tmp_190 (bvand tmp_189 tmp_188)))
        (let ((tmp_191 (bvxor tmp_190 #b1)))
        (let ((tmp_192 (bvand tmp_191 tmp_187)))
        (let ((tmp_193 (bvand tmp_192 tmp_175)))
        (let ((tmp_194 (bvxor tmp_193 #b1)))
        (let ((tmp_195 (bvxor tmp_192 #b1)))
        (let ((tmp_196 (bvand tmp_195 tmp_174)))
        (let ((tmp_197 (bvxor tmp_196 #b1)))
        (let ((tmp_198 (bvand tmp_197 tmp_194)))
        (let ((tmp_199 (bvand tmp_198 tmp_173)))
        (let ((tmp_200 (bvxor tmp_199 #b1)))
        (let ((tmp_201 (bvxor tmp_173 #b1)))
        (let ((tmp_202 (bvxor tmp_198 #b1)))
        (let ((tmp_203 (bvand tmp_202 tmp_201)))
        (let ((tmp_204 (bvxor tmp_203 #b1)))
        (let ((tmp_205 (bvand tmp_204 tmp_200)))
        (let ((tmp_206 (bvand tmp_205 tmp_148)))
        (let ((tmp_207 (bvxor tmp_206 #b1)))
        (let ((tmp_208 (bvxor tmp_205 #b1)))
        (let ((tmp_209 (bvand tmp_208 tmp_147)))
        (let ((tmp_210 (bvxor tmp_209 #b1)))
        (let ((tmp_211 (bvand tmp_210 tmp_207)))
        (let ((tmp_212 (bvand tmp_211 tmp_146)))
        (let ((tmp_213 (bvxor tmp_212 #b1)))
        (let ((tmp_214 (bvxor tmp_146 #b1)))
        (let ((tmp_215 (bvxor tmp_211 #b1)))
        (let ((tmp_216 (bvand tmp_215 tmp_214)))
        (let ((tmp_217 (bvxor tmp_216 #b1)))
        (let ((tmp_218 (bvand tmp_217 tmp_213)))
        (let ((tmp_219 (bvand tmp_218 tmp_130)))
        (let ((tmp_220 (bvxor tmp_219 #b1)))
        (let ((tmp_221 (bvxor tmp_218 #b1)))
        (let ((tmp_222 (bvand tmp_221 tmp_129)))
        (let ((tmp_223 (bvxor tmp_222 #b1)))
        (let ((tmp_224 (bvand tmp_223 tmp_220)))
        (let ((tmp_225 (bvand tmp_224 tmp_57)))
        (let ((tmp_226 (bvxor tmp_225 #b1)))
        (let ((tmp_227 (bvxor tmp_224 #b1)))
        (let ((tmp_228 (bvand tmp_227 tmp_58)))
        (let ((tmp_229 (bvxor tmp_228 #b1)))
        (let ((tmp_230 (bvand tmp_229 tmp_226)))
        (let ((tmp_231 (bvand tmp_230 tmp_123)))
        (let ((tmp_232 (bvxor tmp_231 #b1)))
        (let ((tmp_233 (bvxor tmp_230 #b1)))
        (let ((tmp_234 (bvand tmp_233 tmp_124)))
        (let ((tmp_235 (bvxor tmp_234 #b1)))
        (let ((tmp_236 (bvand tmp_235 tmp_232)))
        (let ((tmp_237 (bvand tmp_220 tmp_226)))
        (let ((tmp_238 (bvxor tmp_237 #b1)))
        (let ((tmp_239 (bvand tmp_207 tmp_213)))
        (let ((tmp_240 (bvxor tmp_239 #b1)))
        (let ((tmp_241 (bvand tmp_131 tmp_23)))
        (let ((tmp_242 (bvand tmp_55 tmp_70)))
        (let ((tmp_243 (bvand tmp_242 tmp_241)))
        (let ((tmp_244 (bvxor tmp_243 #b1)))
        (let ((tmp_245 (bvxor tmp_241 #b1)))
        (let ((tmp_246 (bvxor tmp_242 #b1)))
        (let ((tmp_247 (bvand tmp_246 tmp_245)))
        (let ((tmp_248 (bvxor tmp_247 #b1)))
        (let ((tmp_249 (bvand tmp_248 tmp_244)))
        (let ((tmp_250 (bvand tmp_161 tmp_168)))
        (let ((tmp_251 (bvxor tmp_250 #b1)))
        (let ((tmp_252 (bvand tmp_251 tmp_249)))
        (let ((tmp_253 (bvxor tmp_252 #b1)))
        (let ((tmp_254 (bvxor tmp_249 #b1)))
        (let ((tmp_255 (bvand tmp_250 tmp_254)))
        (let ((tmp_256 (bvxor tmp_255 #b1)))
        (let ((tmp_257 (bvand tmp_256 tmp_253)))
        (let ((tmp_258 (bvand tmp_257 tmp_134)))
        (let ((tmp_259 (bvxor tmp_258 #b1)))
        (let ((tmp_260 (bvxor tmp_257 #b1)))
        (let ((tmp_261 (bvand tmp_260 tmp_135)))
        (let ((tmp_262 (bvxor tmp_261 #b1)))
        (let ((tmp_263 (bvand tmp_262 tmp_259)))
        (let ((tmp_264 (bvand tmp_194 tmp_200)))
        (let ((tmp_265 (bvxor tmp_264 #b1)))
        (let ((tmp_266 (bvand tmp_14 tmp_156)))
        (let ((tmp_267 (bvand tmp_3 tmp_152)))
        (let ((tmp_268 (bvand tmp_158 tmp_17)))
        (let ((tmp_269 (bvand tmp_268 tmp_267)))
        (let ((tmp_270 (bvxor tmp_269 #b1)))
        (let ((tmp_271 (bvxor tmp_267 #b1)))
        (let ((tmp_272 (bvxor tmp_268 #b1)))
        (let ((tmp_273 (bvand tmp_272 tmp_271)))
        (let ((tmp_274 (bvxor tmp_273 #b1)))
        (let ((tmp_275 (bvand tmp_274 tmp_270)))
        (let ((tmp_276 (bvand tmp_275 tmp_266)))
        (let ((tmp_277 (bvxor tmp_276 #b1)))
        (let ((tmp_278 (bvxor tmp_266 #b1)))
        (let ((tmp_279 (bvxor tmp_275 #b1)))
        (let ((tmp_280 (bvand tmp_279 tmp_278)))
        (let ((tmp_281 (bvxor tmp_280 #b1)))
        (let ((tmp_282 (bvand tmp_281 tmp_277)))
        (let ((tmp_283 (bvand tmp_180 tmp_187)))
        (let ((tmp_284 (bvxor tmp_283 #b1)))
        (let ((tmp_285 (bvand tmp_79 tmp_64)))
        (let ((tmp_286 (bvand tmp_32 tmp_150)))
        (let ((tmp_287 (bvand tmp_286 tmp_285)))
        (let ((tmp_288 (bvxor tmp_287 #b1)))
        (let ((tmp_289 (bvxor tmp_285 #b1)))
        (let ((tmp_290 (bvxor tmp_286 #b1)))
        (let ((tmp_291 (bvand tmp_290 tmp_289)))
        (let ((tmp_292 (bvxor tmp_291 #b1)))
        (let ((tmp_293 (bvand tmp_292 tmp_288)))
        (let ((tmp_294 (bvand tmp_293 tmp_284)))
        (let ((tmp_295 (bvxor tmp_294 #b1)))
        (let ((tmp_296 (bvxor tmp_293 #b1)))
        (let ((tmp_297 (bvand tmp_296 tmp_283)))
        (let ((tmp_298 (bvxor tmp_297 #b1)))
        (let ((tmp_299 (bvand tmp_298 tmp_295)))
        (let ((tmp_300 (bvand tmp_299 tmp_282)))
        (let ((tmp_301 (bvxor tmp_300 #b1)))
        (let ((tmp_302 (bvxor tmp_282 #b1)))
        (let ((tmp_303 (bvxor tmp_299 #b1)))
        (let ((tmp_304 (bvand tmp_303 tmp_302)))
        (let ((tmp_305 (bvxor tmp_304 #b1)))
        (let ((tmp_306 (bvand tmp_305 tmp_301)))
        (let ((tmp_307 (bvand tmp_306 tmp_265)))
        (let ((tmp_308 (bvxor tmp_307 #b1)))
        (let ((tmp_309 (bvxor tmp_306 #b1)))
        (let ((tmp_310 (bvand tmp_309 tmp_264)))
        (let ((tmp_311 (bvxor tmp_310 #b1)))
        (let ((tmp_312 (bvand tmp_311 tmp_308)))
        (let ((tmp_313 (bvand tmp_312 tmp_263)))
        (let ((tmp_314 (bvxor tmp_313 #b1)))
        (let ((tmp_315 (bvxor tmp_263 #b1)))
        (let ((tmp_316 (bvxor tmp_312 #b1)))
        (let ((tmp_317 (bvand tmp_316 tmp_315)))
        (let ((tmp_318 (bvxor tmp_317 #b1)))
        (let ((tmp_319 (bvand tmp_318 tmp_314)))
        (let ((tmp_320 (bvand tmp_319 tmp_240)))
        (let ((tmp_321 (bvxor tmp_320 #b1)))
        (let ((tmp_322 (bvxor tmp_319 #b1)))
        (let ((tmp_323 (bvand tmp_322 tmp_239)))
        (let ((tmp_324 (bvxor tmp_323 #b1)))
        (let ((tmp_325 (bvand tmp_324 tmp_321)))
        (let ((tmp_326 (bvand tmp_325 tmp_141)))
        (let ((tmp_327 (bvxor tmp_326 #b1)))
        (let ((tmp_328 (bvxor tmp_325 #b1)))
        (let ((tmp_329 (bvand tmp_328 tmp_142)))
        (let ((tmp_330 (bvxor tmp_329 #b1)))
        (let ((tmp_331 (bvand tmp_330 tmp_327)))
        (let ((tmp_332 (bvand tmp_331 tmp_238)))
        (let ((tmp_333 (bvxor tmp_332 #b1)))
        (let ((tmp_334 (bvxor tmp_331 #b1)))
        (let ((tmp_335 (bvand tmp_334 tmp_237)))
        (let ((tmp_336 (bvxor tmp_335 #b1)))
        (let ((tmp_337 (bvand tmp_336 tmp_333)))
        (let ((tmp_338 (bvand tmp_337 tmp_231)))
        (let ((tmp_339 (bvxor tmp_338 #b1)))
        (let ((tmp_340 (bvxor tmp_337 #b1)))
        (let ((tmp_341 (bvand tmp_340 tmp_232)))
        (let ((tmp_342 (bvxor tmp_341 #b1)))
        (let ((tmp_343 (bvand tmp_342 tmp_339)))
        (let ((tmp_344 (bvand tmp_333 tmp_339)))
        (let ((tmp_345 (bvxor tmp_344 #b1)))
        (let ((tmp_346 (bvand tmp_321 tmp_327)))
        (let ((tmp_347 (bvxor tmp_346 #b1)))
        (let ((tmp_348 (bvand tmp_253 tmp_259)))
        (let ((tmp_349 (bvxor tmp_348 #b1)))
        (let ((tmp_350 (bvand tmp_308 tmp_314)))
        (let ((tmp_351 (bvxor tmp_350 #b1)))
        (let ((tmp_352 (bvand tmp_131 tmp_70)))
        (let ((tmp_353 (bvand tmp_55 tmp_156)))
        (let ((tmp_354 (bvand tmp_353 tmp_352)))
        (let ((tmp_355 (bvxor tmp_354 #b1)))
        (let ((tmp_356 (bvxor tmp_352 #b1)))
        (let ((tmp_357 (bvxor tmp_353 #b1)))
        (let ((tmp_358 (bvand tmp_357 tmp_356)))
        (let ((tmp_359 (bvxor tmp_358 #b1)))
        (let ((tmp_360 (bvand tmp_359 tmp_355)))
        (let ((tmp_361 (bvand tmp_270 tmp_277)))
        (let ((tmp_362 (bvxor tmp_361 #b1)))
        (let ((tmp_363 (bvand tmp_362 tmp_360)))
        (let ((tmp_364 (bvxor tmp_363 #b1)))
        (let ((tmp_365 (bvxor tmp_360 #b1)))
        (let ((tmp_366 (bvand tmp_361 tmp_365)))
        (let ((tmp_367 (bvxor tmp_366 #b1)))
        (let ((tmp_368 (bvand tmp_367 tmp_364)))
        (let ((tmp_369 (bvand tmp_368 tmp_243)))
        (let ((tmp_370 (bvxor tmp_369 #b1)))
        (let ((tmp_371 (bvxor tmp_368 #b1)))
        (let ((tmp_372 (bvand tmp_371 tmp_244)))
        (let ((tmp_373 (bvxor tmp_372 #b1)))
        (let ((tmp_374 (bvand tmp_373 tmp_370)))
        (let ((tmp_375 (bvand tmp_295 tmp_301)))
        (let ((tmp_376 (bvxor tmp_375 #b1)))
        (let ((tmp_377 (bvand tmp_14 tmp_152)))
        (let ((tmp_378 (bvand tmp_158 tmp_64)))
        (let ((tmp_379 (bvand tmp_378 tmp_377)))
        (let ((tmp_380 (bvxor tmp_379 #b1)))
        (let ((tmp_381 (bvxor tmp_377 #b1)))
        (let ((tmp_382 (bvxor tmp_378 #b1)))
        (let ((tmp_383 (bvand tmp_382 tmp_381)))
        (let ((tmp_384 (bvxor tmp_383 #b1)))
        (let ((tmp_385 (bvand tmp_384 tmp_380)))
        (let ((tmp_386 (bvand tmp_79 tmp_150)))
        (let ((tmp_387 (bvand tmp_386 tmp_287)))
        (let ((tmp_388 (bvxor tmp_387 #b1)))
        (let ((tmp_389 (bvxor tmp_386 #b1)))
        (let ((tmp_390 (bvand tmp_389 tmp_288)))
        (let ((tmp_391 (bvxor tmp_390 #b1)))
        (let ((tmp_392 (bvand tmp_391 tmp_388)))
        (let ((tmp_393 (bvand tmp_392 tmp_385)))
        (let ((tmp_394 (bvxor tmp_393 #b1)))
        (let ((tmp_395 (bvxor tmp_385 #b1)))
        (let ((tmp_396 (bvxor tmp_392 #b1)))
        (let ((tmp_397 (bvand tmp_396 tmp_395)))
        (let ((tmp_398 (bvxor tmp_397 #b1)))
        (let ((tmp_399 (bvand tmp_398 tmp_394)))
        (let ((tmp_400 (bvand tmp_399 tmp_376)))
        (let ((tmp_401 (bvxor tmp_400 #b1)))
        (let ((tmp_402 (bvxor tmp_399 #b1)))
        (let ((tmp_403 (bvand tmp_402 tmp_375)))
        (let ((tmp_404 (bvxor tmp_403 #b1)))
        (let ((tmp_405 (bvand tmp_404 tmp_401)))
        (let ((tmp_406 (bvand tmp_405 tmp_374)))
        (let ((tmp_407 (bvxor tmp_406 #b1)))
        (let ((tmp_408 (bvxor tmp_374 #b1)))
        (let ((tmp_409 (bvxor tmp_405 #b1)))
        (let ((tmp_410 (bvand tmp_409 tmp_408)))
        (let ((tmp_411 (bvxor tmp_410 #b1)))
        (let ((tmp_412 (bvand tmp_411 tmp_407)))
        (let ((tmp_413 (bvand tmp_412 tmp_351)))
        (let ((tmp_414 (bvxor tmp_413 #b1)))
        (let ((tmp_415 (bvxor tmp_412 #b1)))
        (let ((tmp_416 (bvand tmp_415 tmp_350)))
        (let ((tmp_417 (bvxor tmp_416 #b1)))
        (let ((tmp_418 (bvand tmp_417 tmp_414)))
        (let ((tmp_419 (bvand tmp_418 tmp_349)))
        (let ((tmp_420 (bvxor tmp_419 #b1)))
        (let ((tmp_421 (bvxor tmp_418 #b1)))
        (let ((tmp_422 (bvand tmp_421 tmp_348)))
        (let ((tmp_423 (bvxor tmp_422 #b1)))
        (let ((tmp_424 (bvand tmp_423 tmp_420)))
        (let ((tmp_425 (bvand tmp_424 tmp_347)))
        (let ((tmp_426 (bvxor tmp_425 #b1)))
        (let ((tmp_427 (bvxor tmp_424 #b1)))
        (let ((tmp_428 (bvand tmp_427 tmp_346)))
        (let ((tmp_429 (bvxor tmp_428 #b1)))
        (let ((tmp_430 (bvand tmp_429 tmp_426)))
        (let ((tmp_431 (bvand tmp_430 tmp_345)))
        (let ((tmp_432 (bvxor tmp_431 #b1)))
        (let ((tmp_433 (bvxor tmp_430 #b1)))
        (let ((tmp_434 (bvand tmp_433 tmp_344)))
        (let ((tmp_435 (bvxor tmp_434 #b1)))
        (let ((tmp_436 (bvand tmp_435 tmp_432)))
        (let ((tmp_437 (bvand tmp_54 tmp_13)))
        (let ((tmp_438 (bvand tmp_128 tmp_437)))
        (let ((tmp_439 (bvand tmp_337 tmp_236)))
        (let ((tmp_440 (bvand tmp_430 tmp_439)))
        (let ((tmp_441 (bvand tmp_440 tmp_438)))
        (let ((tmp_442 (bvand tmp_441 tmp_231)))
        (let ((tmp_443 (bvxor tmp_442 #b1)))
        (let ((tmp_444 (bvand tmp_426 tmp_432)))
        (let ((tmp_445 (bvand tmp_444 tmp_443)))
        (let ((tmp_446 (bvxor tmp_445 #b1)))
        (let ((tmp_447 (bvand tmp_414 tmp_420)))
        (let ((tmp_448 (bvxor tmp_447 #b1)))
        (let ((tmp_449 (bvand tmp_364 tmp_370)))
        (let ((tmp_450 (bvxor tmp_449 #b1)))
        (let ((tmp_451 (bvand tmp_401 tmp_407)))
        (let ((tmp_452 (bvxor tmp_451 #b1)))
        (let ((tmp_453 (bvand tmp_131 tmp_156)))
        (let ((tmp_454 (bvand tmp_55 tmp_152)))
        (let ((tmp_455 (bvand tmp_454 tmp_453)))
        (let ((tmp_456 (bvxor tmp_455 #b1)))
        (let ((tmp_457 (bvxor tmp_453 #b1)))
        (let ((tmp_458 (bvxor tmp_454 #b1)))
        (let ((tmp_459 (bvand tmp_458 tmp_457)))
        (let ((tmp_460 (bvxor tmp_459 #b1)))
        (let ((tmp_461 (bvand tmp_460 tmp_456)))
        (let ((tmp_462 (bvand tmp_379 tmp_461)))
        (let ((tmp_463 (bvxor tmp_462 #b1)))
        (let ((tmp_464 (bvxor tmp_461 #b1)))
        (let ((tmp_465 (bvand tmp_380 tmp_464)))
        (let ((tmp_466 (bvxor tmp_465 #b1)))
        (let ((tmp_467 (bvand tmp_466 tmp_463)))
        (let ((tmp_468 (bvand tmp_467 tmp_354)))
        (let ((tmp_469 (bvxor tmp_468 #b1)))
        (let ((tmp_470 (bvxor tmp_467 #b1)))
        (let ((tmp_471 (bvand tmp_470 tmp_355)))
        (let ((tmp_472 (bvxor tmp_471 #b1)))
        (let ((tmp_473 (bvand tmp_472 tmp_469)))
        (let ((tmp_474 (bvand tmp_388 tmp_394)))
        (let ((tmp_475 (bvxor tmp_474 #b1)))
        (let ((tmp_476 (bvand tmp_158 tmp_150)))
        (let ((tmp_477 (bvand tmp_476 tmp_475)))
        (let ((tmp_478 (bvxor tmp_477 #b1)))
        (let ((tmp_479 (bvxor tmp_476 #b1)))
        (let ((tmp_480 (bvand tmp_479 tmp_474)))
        (let ((tmp_481 (bvxor tmp_480 #b1)))
        (let ((tmp_482 (bvand tmp_481 tmp_478)))
        (let ((tmp_483 (bvand tmp_482 tmp_473)))
        (let ((tmp_484 (bvxor tmp_483 #b1)))
        (let ((tmp_485 (bvxor tmp_473 #b1)))
        (let ((tmp_486 (bvxor tmp_482 #b1)))
        (let ((tmp_487 (bvand tmp_486 tmp_485)))
        (let ((tmp_488 (bvxor tmp_487 #b1)))
        (let ((tmp_489 (bvand tmp_488 tmp_484)))
        (let ((tmp_490 (bvand tmp_489 tmp_452)))
        (let ((tmp_491 (bvxor tmp_490 #b1)))
        (let ((tmp_492 (bvxor tmp_489 #b1)))
        (let ((tmp_493 (bvand tmp_492 tmp_451)))
        (let ((tmp_494 (bvxor tmp_493 #b1)))
        (let ((tmp_495 (bvand tmp_494 tmp_491)))
        (let ((tmp_496 (bvand tmp_495 tmp_450)))
        (let ((tmp_497 (bvxor tmp_496 #b1)))
        (let ((tmp_498 (bvxor tmp_495 #b1)))
        (let ((tmp_499 (bvand tmp_498 tmp_449)))
        (let ((tmp_500 (bvxor tmp_499 #b1)))
        (let ((tmp_501 (bvand tmp_500 tmp_497)))
        (let ((tmp_502 (bvand tmp_501 tmp_448)))
        (let ((tmp_503 (bvxor tmp_502 #b1)))
        (let ((tmp_504 (bvxor tmp_501 #b1)))
        (let ((tmp_505 (bvand tmp_504 tmp_447)))
        (let ((tmp_506 (bvxor tmp_505 #b1)))
        (let ((tmp_507 (bvand tmp_506 tmp_503)))
        (let ((tmp_508 (bvand tmp_507 tmp_446)))
        (let ((tmp_509 (bvxor tmp_508 #b1)))
        (let ((tmp_510 (bvxor tmp_507 #b1)))
        (let ((tmp_511 (bvand tmp_510 tmp_445)))
        (let ((tmp_512 (bvxor tmp_511 #b1)))
        (let ((tmp_513 (bvand tmp_512 tmp_509)))
        (let ((tmp_514 (bvand tmp_441 tmp_345)))
        (let ((tmp_515 (bvand tmp_507 tmp_514)))
        (let ((tmp_516 (bvxor tmp_515 #b1)))
        (let ((tmp_517 (bvxor tmp_444 #b1)))
        (let ((tmp_518 (bvand tmp_507 tmp_517)))
        (let ((tmp_519 (bvxor tmp_518 #b1)))
        (let ((tmp_520 (bvand tmp_519 tmp_516)))
        (let ((tmp_521 (bvand tmp_503 tmp_520)))
        (let ((tmp_522 (bvxor tmp_521 #b1)))
        (let ((tmp_523 (bvand tmp_491 tmp_497)))
        (let ((tmp_524 (bvxor tmp_523 #b1)))
        (let ((tmp_525 (bvand tmp_524 tmp_522)))
        (let ((tmp_526 (bvxor tmp_525 #b1)))
        (let ((tmp_527 (bvand tmp_523 tmp_521)))
        (let ((tmp_528 (bvxor tmp_527 #b1)))
        (let ((tmp_529 (bvand tmp_528 tmp_526)))
        (let ((tmp_530 (bvand tmp_463 tmp_469)))
        (let ((tmp_531 (bvxor tmp_530 #b1)))
        (let ((tmp_532 (bvand tmp_478 tmp_484)))
        (let ((tmp_533 (bvxor tmp_532 #b1)))
        (let ((tmp_534 (bvand tmp_533 tmp_531)))
        (let ((tmp_535 (bvxor tmp_534 #b1)))
        (let ((tmp_536 (bvand tmp_532 tmp_530)))
        (let ((tmp_537 (bvxor tmp_536 #b1)))
        (let ((tmp_538 (bvand tmp_537 tmp_535)))
        (let ((tmp_539 (bvand tmp_538 tmp_529)))
        (let ((tmp_540 (bvxor tmp_539 #b1)))
        (let ((tmp_541 (bvxor tmp_529 #b1)))
        (let ((tmp_542 (bvxor tmp_538 #b1)))
        (let ((tmp_543 (bvand tmp_542 tmp_541)))
        (let ((tmp_544 (bvxor tmp_543 #b1)))
        (let ((tmp_545 (bvand tmp_544 tmp_540)))
        (let ((tmp_546 (bvand tmp_131 tmp_152)))
        (let ((tmp_547 (bvand tmp_546 tmp_455)))
        (let ((tmp_548 (bvxor tmp_547 #b1)))
        (let ((tmp_549 (bvxor tmp_546 #b1)))
        (let ((tmp_550 (bvand tmp_549 tmp_456)))
        (let ((tmp_551 (bvxor tmp_550 #b1)))
        (let ((tmp_552 (bvand tmp_551 tmp_548)))
        (let ((tmp_553 (bvand tmp_552 tmp_545)))
        (let ((tmp_554 (bvxor tmp_553 #b1)))
        (let ((tmp_555 (bvxor tmp_545 #b1)))
        (let ((tmp_556 (bvxor tmp_552 #b1)))
        (let ((tmp_557 (bvand tmp_556 tmp_555)))
        (let ((tmp_558 (bvxor tmp_557 #b1)))
        (let ((tmp_559 (bvand tmp_558 tmp_554)))
        (let ((tmp_560 (concat tmp_559 tmp_513)))
        (let ((tmp_561 (concat tmp_560 tmp_436)))
        (let ((tmp_562 (concat tmp_561 tmp_343)))
        (let ((tmp_563 (concat tmp_562 tmp_236)))
        (let ((tmp_564 (concat tmp_563 tmp_128)))
        (let ((tmp_565 (concat tmp_564 tmp_54)))
        (let ((tmp_566 (concat tmp_565 tmp_13)))
        (let ((tmp_567 (concat #x0 tmp_1)))
        (let ((tmp_568 (concat #b0 tmp)))
        (let ((tmp_569 (bvneg tmp_568)))
        (let ((tmp_570 (bvadd #b10000 tmp_569)))
        (let ((tmp_571 (concat #b000 tmp_570)))
        (let ((tmp_572 (bvmul tmp_571 tmp_567)))
        (let ((tmp_573 (concat #x0 tmp_0)))
        (let ((tmp_574 (concat #x0 tmp)))
        (let ((tmp_575 (bvmul tmp_574 tmp_573)))
        (let ((tmp_576 (bvadd tmp_575 tmp_572)))
        (let ((tmp_577 (distinct tmp_576 tmp_566)))
        tmp_577)))))))))))))))))))))))))))))))))))))))))))))))))))))))))))))))))))))))))))))))))))))))))))))))))))))))))))))))))))))))))))))))))))))))))))))))))))))))))))))))))))))))))))))))))))))))))))))))))))))))))))))))))))))))))))))))))))))))))))))))))))))))))))))))))))))))))))))))))))))))))))))))))))))))))))))))))))))))))))))))))))))))))))))))))))))))))))))))))))))))))))))))))))))))))))))))))))))))))))))))))))))))))))))))))))))))))))))))))))))))))))))))))))))))))))))))))))))))))))))))))))))))))))))))))))))))))))))))))))))))))))))))))))))))))))))))))))))))))))))))))))))))))))))))))
(check-sat)

(exit)